(set-logic QF_LRA)
(set-info :ran/ran_7_2.smt2)
(set-info :smt-lib-version 2.0)
(declare-fun x0 () Real)
(declare-fun x1 () Real)
(declare-fun x2 () Real)
(declare-fun x3 () Real)
(declare-fun x4 () Real)
(declare-fun x5 () Real)
(declare-fun x6 () Real)
(define-fun ie0 () Bool (<= (+ (* 63 x1) (* 29 x2) ) (- 94)))
(define-fun ie1 () Bool (<= (+ (* (- 78) x1) (* (- 58) x6) ) (- 36)))
(define-fun ie2 () Bool (<= (+ (* (- 98) x6) (* 38 x5) ) (- 68)))
(define-fun ie3 () Bool (<= (+ (* (- 95) x5) (* 63 x2) ) 70))
(define-fun ie4 () Bool (<= (+ (* 43 x1) (* (- 35) x1) ) 50))
(define-fun ie5 () Bool (<= (+ (* (- 73) x5) (* 26 x0) ) 0))
(define-fun ie6 () Bool (<= (+ (* 66 x2) (* 26 x4) ) (- 69)))
(define-fun ie7 () Bool (<= (+ (* 32 x0) (* 10 x1) ) (- 56)))
(define-fun ie8 () Bool (<= (+ (* 74 x4) (* 44 x1) ) 49))
(define-fun ie9 () Bool (<= (+ (* 76 x0) (* 75 x0) ) (- 61)))
(define-fun ie10 () Bool (<= (+ (* (- 3) x5) (* 83 x0) ) 14))
(define-fun ie11 () Bool (<= (+ (* (- 15) x5) (* (- 42) x4) ) 57))
(define-fun ie12 () Bool (<= (+ (* 10 x5) (* (- 12) x5) ) 28))
(define-fun ie13 () Bool (<= (+ (* 19 x4) (* 49 x3) ) (- 54)))
(assert ie0)
(assert ie1)
(assert ie2)
(assert ie3)
(assert ie4)
(assert ie5)
(assert ie6)
(assert ie7)
(assert ie8)
(assert ie9)
(assert ie10)
(assert ie11)
(assert ie12)
(assert ie13)
(check-sat)
(exit)
